
Gurobi 11.0.3 (mac64[x86]) logging started Tue Apr  8 14:28:28 2025

Set parameter LogFile to value "Results/Conservative_experiment/sanity_check.log"
Set parameter TimeLimit to value 84600
Set parameter Method to value 2
Set parameter Crossover to value 0
Gurobi Optimizer version 11.0.3 build v11.0.3rc0 (mac64[x86] - Darwin 23.4.0 23E214)

CPU model: Intel(R) Core(TM) i7-1060NG7 CPU @ 1.20GHz
Thread count: 4 physical cores, 8 logical processors, using up to 8 threads

Optimize a model with 3282720 rows, 3705248 columns and 108538544 nonzeros
Model fingerprint: 0x3d7219ab
Coefficient statistics:
  Matrix range     [2e-01, 3e+00]
  Objective range  [6e-05, 5e+00]
  Bounds range     [0e+00, 0e+00]
  RHS range        [4e+00, 1e+03]
Presolve removed 0 rows and 0 columns (presolve time = 10s) ...
Presolve removed 675600 rows and 781024 columns (presolve time = 15s) ...
Presolve removed 1685280 rows and 2102928 columns (presolve time = 23s) ...
Presolve removed 2051460 rows and 2469131 columns (presolve time = 25s) ...
Presolve removed 2478096 rows and 2683164 columns (presolve time = 30s) ...
Presolve removed 2525563 rows and 2688146 columns
Presolve time: 32.35s
Presolved: 757157 rows, 1017102 columns, 3921049 nonzeros
Ordering time: 0.05s

Barrier statistics:
 AA' NZ     : 1.968e+05
 Factor NZ  : 5.360e+05 (roughly 20 MB of memory)
 Factor Ops : 3.692e+07 (less than 1 second per iteration)
 Threads    : 4

                  Objective                Residual
Iter       Primal          Dual         Primal    Dual     Compl     Time
   0  -1.06698188e+06  1.37159059e+05  3.75e+03 7.61e+00  2.21e+03    33s
   1  -1.81147242e+06  9.96058709e+04  1.08e+03 1.39e+01  1.05e+03    34s
   2  -2.29008340e+06  4.91436774e+04  1.55e+02 2.59e+00  2.39e+02    34s
   3  -1.42508044e+06  1.06295305e+04  1.18e+01 3.28e-02  3.99e+01    34s
   4  -1.29362554e+05  2.96410949e+03  8.12e-01 1.51e-03  3.55e+00    34s
   5  -3.15491427e+04  1.36662194e+03  1.99e-01 1.87e-13  8.74e-01    34s
   6  -2.69764330e+03  1.13693477e+03  1.68e-02 7.43e-14  1.01e-01    34s
   7   5.09888010e+02  1.03987542e+03  1.56e-03 6.14e-14  1.40e-02    34s
   8   6.72959919e+02  7.84639424e+02  2.95e-04 1.08e-13  2.94e-03    34s
   9   7.10934590e+02  7.29375225e+02  6.68e-05 1.21e-13  4.86e-04    34s
  10   7.20780680e+02  7.22874194e+02  4.63e-06 2.76e-13  5.50e-05    34s
  11   7.21517800e+02  7.21592155e+02  2.85e-07 1.31e-13  1.96e-06    34s
  12   7.21571407e+02  7.21573554e+02  2.05e-09 1.18e-13  5.64e-08    34s
  13   7.21571996e+02  7.21572002e+02  3.29e-10 4.01e-13  1.58e-10    34s

Barrier solved model in 13 iterations and 33.83 seconds (18.64 work units)
Optimal objective 7.21571996e+02

